c A SAT instance generated from a 3-CNF formula that had 18 clauses and 9 variables
p cnf 9 18
6 -3 1 0
-7 4 6 0
-7 -9 3 0
-6 -5 -1 0
1 2 9 0
2 7 1 0
5 -9 3 0
-9 -6 8 0
7 2 4 0
-3 -9 -4 0
-3 -1 -6 0
-3 7 4 0
9 6 -4 0
-6 -4 3 0
-3 -9 7 0
-7 6 5 0
-3 1 -6 0
-3 5 4 0
